46 46
4 6
2 4
7 3
8 9
4 10
5 10
5 4
3 9
6 5
2 3
4 9
4 6
9 3
1 6
1 4
3 9
10 7
2 4
6 5
6 1
4 4
5 7
3 3
2 7
2 1
3 10
3 2
8 8
3 4
5 8
4 8
10 4
6 10
6 10
3 9
3 10
3 1
10 7
7 2
8 6
2 1
3 5
7 7
6 8
6 5
9 8
17 17 65
19 12 56
17 20 91
13 12 79
11 19 51
19 10 75
19 20 94
15 10 72
20 10 82
17 12 94
17 10 68
20 16 88
18 11 56
15 10 71
12 19 86
19 18 51
18 16 100
11 12 51
12 14 70
12 12 52
11 20 53
18 20 78
17 10 66
12 18 84
16 12 73
13 20 78
11 11 59
20 14 62
13 11 64
14 18 71
16 11 91
16 13 97
16 18 75
17 17 74
14 16 93
10 16 83
17 19 59
11 18 74
19 14 86
15 17 55
18 10 81
10 16 88
18 17 58
17 13 85
10 14 67
15 14 59
